NAME: random-89-11078
TYPE: TSP
COMMENT: size=89 seed=11078
DIMENSION: 180
EDGE_WEIGHT_TYPE: EUC_2D
NODE_COORD_SECTION
+0 946 743
-0 946 743
+1 593 241
-1 345 44
+2 319 264
-2 864 32
+3 741 122
-3 962 638
+4 708 867
-4 711 956
+5 906 806
-5 274 617
+6 349 235
-6 76 816
+7 272 881
-7 218 807
+8 107 151
-8 542 882
+9 186 409
-9 396 629
+10 234 468
-10 419 993
+11 431 275
-11 725 498
+12 545 248
-12 401 10
+13 26 517
-13 691 152
+14 989 520
-14 756 944
+15 729 865
-15 629 374
+16 768 150
-16 850 589
+17 931 822
-17 982 533
+18 887 433
-18 874 677
+19 586 370
-19 58 978
+20 980 296
-20 837 56
+21 480 32
-21 905 220
+22 241 823
-22 463 323
+23 854 954
-23 100 111
+24 293 952
-24 163 385
+25 134 565
-25 831 759
+26 492 120
-26 623 164
+27 692 778
-27 301 35
+28 589 701
-28 996 28
+29 533 790
-29 205 868
+30 751 919
-30 981 541
+31 651 143
-31 484 261
+32 527 537
-32 54 189
+33 141 547
-33 548 173
+34 418 338
-34 250 829
+35 581 970
-35 44 719
+36 277 4
-36 483 683
+37 59 551
-37 236 35
+38 198 718
-38 620 157
+39 801 822
-39 348 116
+40 579 249
-40 550 663
+41 406 96
-41 732 101
+42 636 37
-42 537 15
+43 727 552
-43 643 611
+44 359 490
-44 869 45
+45 846 456
-45 449 355
+46 220 582
-46 72 387
+47 404 968
-47 892 716
+48 133 138
-48 419 12
+49 543 35
-49 660 511
+50 128 997
-50 859 157
+51 766 935
-51 707 968
+52 367 824
-52 98 296
+53 872 32
-53 673 689
+54 134 984
-54 606 233
+55 825 399
-55 206 394
+56 585 90
-56 960 733
+57 498 840
-57 992 907
+58 157 78
-58 654 422
+59 357 343
-59 495 435
+60 85 953
-60 877 876
+61 999 235
-61 732 877
+62 774 749
-62 950 941
+63 175 887
-63 633 553
+64 514 285
-64 787 637
+65 791 990
-65 293 505
+66 901 216
-66 469 125
+67 127 881
-67 170 38
+68 854 614
-68 443 104
+69 462 11
-69 940 825
+70 372 261
-70 337 42
+71 471 958
-71 727 800
+72 405 49
-72 430 753
+73 366 18
-73 77 471
+74 84 59
-74 420 540
+75 470 845
-75 988 549
+76 825 963
-76 302 673
+77 704 944
-77 881 658
+78 454 17
-78 40 559
+79 998 681
-79 212 629
+80 59 790
-80 32 598
+81 307 251
-81 400 161
+82 285 380
-82 993 747
+83 15 62
-83 587 88
+84 994 578
-84 258 502
+85 466 263
-85 119 651
+86 698 709
-86 359 723
+87 116 146
-87 798 970
+88 457 357
-88 196 702
+89 165 854
-89 215 393
PRECEDENCE_SECTION
+0 -0
+1 -1
+2 -2
+3 -3
+4 -4
+5 -5
+6 -6
+7 -7
+8 -8
+9 -9
+10 -10
+11 -11
+12 -12
+13 -13
+14 -14
+15 -15
+16 -16
+17 -17
+18 -18
+19 -19
+20 -20
+21 -21
+22 -22
+23 -23
+24 -24
+25 -25
+26 -26
+27 -27
+28 -28
+29 -29
+30 -30
+31 -31
+32 -32
+33 -33
+34 -34
+35 -35
+36 -36
+37 -37
+38 -38
+39 -39
+40 -40
+41 -41
+42 -42
+43 -43
+44 -44
+45 -45
+46 -46
+47 -47
+48 -48
+49 -49
+50 -50
+51 -51
+52 -52
+53 -53
+54 -54
+55 -55
+56 -56
+57 -57
+58 -58
+59 -59
+60 -60
+61 -61
+62 -62
+63 -63
+64 -64
+65 -65
+66 -66
+67 -67
+68 -68
+69 -69
+70 -70
+71 -71
+72 -72
+73 -73
+74 -74
+75 -75
+76 -76
+77 -77
+78 -78
+79 -79
+80 -80
+81 -81
+82 -82
+83 -83
+84 -84
+85 -85
+86 -86
+87 -87
+88 -88
+89 -89
EOF
